(declare-const BAV1 Bool)
(declare-const BAV2 Bool)
(declare-const GEN6 String)
(declare-const GEN5 Int)
(declare-const GEN4 Int)
(declare-const GEN3 String)
(declare-const GEN2 Int)
(declare-const GEN1 String)
(declare-fun a () String)
(declare-fun b () String)
(declare-fun c () String)
(declare-fun d () String)
(declare-fun e () String)
(assert (not (= (str.replace (str.++ GEN1 (str.substr a GEN2 (str.len c))) GEN3 (str.substr b GEN4 (str.len d))) (str.replace (str.substr a GEN5 (str.len c)) GEN6 d))))
(assert (= b (str.++ d e)))
(assert (= BAV1 (= (str.replace (str.++ GEN1 (str.substr a GEN2 (str.len c))) GEN3 (str.substr b GEN4 (str.len d))) (str.replace (str.substr a GEN5 (str.len c)) GEN6 d))))
(assert (= BAV2 (= b (str.++ d e))))
(check-sat)
(get-model)